
Gurobi 6.5.2 (win64) logging started 07/23/16 02:31:04


Gurobi 6.5.2 (win64) logging started 07/23/16 02:31:04

Optimize a model with 6020 rows, 589 columns and 13206 nonzeros
Coefficient statistics:
  Matrix range    [1e+00, 4e+01]
  Objective range [7e+00, 4e+01]
  Bounds range    [1e+00, 1e+00]
  RHS range       [1e+00, 4e+02]
Presolve removed 5867 rows and 163 columns
Presolve time: 0.01s
Presolved: 153 rows, 426 columns, 1787 nonzeros
Variable types: 0 continuous, 426 integer (426 binary)

Root relaxation: objective 4.320000e+02, 93 iterations, 0.00 seconds

    Nodes    |    Current Node    |     Objective Bounds      |     Work
 Expl Unexpl |  Obj  Depth IntInf | Incumbent    BestBd   Gap | It/Node Time

*    0     0               0     432.0000000  432.00000  0.00%     -    0s

Explored 0 nodes (93 simplex iterations) in 0.02 seconds
Thread count was 8 (of 8 available processors)

Optimal solution found (tolerance 1.00e-04)
Best objective 4.320000000000e+02, best bound 4.320000000000e+02, gap 0.0%

Wrote requested result file 'H2\instance2\\Results2SG_Sol5.lp'

